\ SCIP STATISTICS
\   Problem name     : SetCover-150-150
\   Variables        : 150 (150 binary, 0 integer, 0 implicit integer, 0 continuous)
\   Constraints      : 150
Minimize
 Obj: +19 x0 +39 x1 +21 x2 +40 x3 +79 x4 +57 x5 +55 x6 +5 x7 +34 x8 +35 x9 +58 x10 +60 x11 +14 x12 +99 x13
      +92 x14 +40 x15 +72 x16 +59 x17 +59 x18 +84 x19 +67 x20 +62 x21 +59 x22 +23 x23 +62 x24 +58 x25
      +89 x26 +2 x27 +68 x28 +88 x29 +83 x30 +67 x31 +33 x32 +68 x33 +58 x34 +61 x35 +81 x36 +64 x37 +10 x38
      +68 x39 +36 x40 +64 x41 +70 x42 +37 x43 +77 x44 +8 x45 +35 x46 +70 x47 +70 x48 +39 x49 +11 x50 +28 x51
      +98 x52 +44 x53 +10 x54 +69 x55 +49 x56 +49 x57 +4 x58 +48 x59 +54 x60 +52 x61 +16 x62 +18 x63 +62 x64
      +25 x65 +91 x66 +69 x67 +49 x68 +15 x69 +37 x70 +52 x71 +93 x72 +37 x73 +61 x74 +78 x75 +41 x76
      +64 x77 +1 x78 +33 x79 +10 x80 +25 x81 +79 x82 +17 x83 +24 x84 +71 x85 +11 x86 +49 x87 +32 x88 +28 x89
      +38 x90 +28 x91 +32 x92 +26 x93 +6 x94 +63 x95 +64 x96 +63 x97 +50 x98 +34 x99 +81 x100 +36 x101
      +31 x102 +2 x103 +22 x104 +65 x105 +98 x106 +61 x107 +52 x108 +71 x109 +24 x110 +68 x111 +64 x112
      +31 x113 +24 x114 +18 x115 +45 x116 +9 x117 +10 x118 +80 x119 +98 x120 +92 x121 +25 x122 +27 x123
      +62 x124 +73 x125 +71 x126 +32 x127 +29 x128 +69 x129 +90 x130 +25 x131 +80 x132 +91 x133 +23 x134
      +98 x135 +22 x136 +39 x137 +68 x138 +19 x139 +34 x140 +32 x141 +86 x142 +35 x143 +14 x144 +32 x145
      +23 x146 +23 x147 +11 x148 +100 x149
Subject to
 c0: +1 x1 +1 x12 +1 x19 +1 x21 +1 x24 +1 x25 +1 x29 +1 x36 +1 x41 +1 x47 +1 x48 +1 x51 +1 x56 +1 x68
  +1 x69 +1 x77 +1 x90 +1 x91 +1 x110 +1 x112 +1 x116 +1 x122 +1 x144 >= +1
 c1: +1 x4 +1 x9 +1 x10 +1 x13 +1 x17 +1 x26 +1 x32 +1 x37 +1 x40 +1 x44 +1 x54 +1 x61 +1 x68 +1 x91 +1 x96
  +1 x97 +1 x100 +1 x104 +1 x108 +1 x109 +1 x110 +1 x112 +1 x113 +1 x124 +1 x130 +1 x138 >= +1
 c2: +1 x6 +1 x9 +1 x13 +1 x15 +1 x30 +1 x31 +1 x58 +1 x69 +1 x70 +1 x82 +1 x85 +1 x92 +1 x102 +1 x112
  +1 x115 +1 x123 +1 x129 +1 x134 +1 x141 +1 x144 >= +1
 c3: +1 x0 +1 x9 +1 x12 +1 x14 +1 x18 +1 x32 +1 x35 +1 x43 +1 x44 +1 x48 +1 x52 +1 x53 +1 x55 +1 x57 +1 x61
  +1 x68 +1 x69 +1 x78 +1 x79 +1 x81 +1 x89 +1 x105 +1 x119 +1 x130 +1 x135 +1 x140 +1 x141 >= +1
 c4: +1 x3 +1 x9 +1 x11 +1 x16 +1 x42 +1 x53 +1 x76 +1 x85 +1 x93 +1 x101 +1 x105 +1 x112 +1 x124 +1 x134
  +1 x136 +1 x143 +1 x149 >= +1
 c5: +1 x4 +1 x28 +1 x29 +1 x31 +1 x33 +1 x35 +1 x41 +1 x47 +1 x51 +1 x55 +1 x58 +1 x64 +1 x69 +1 x73
  +1 x80 +1 x121 +1 x123 +1 x129 +1 x133 +1 x135 +1 x147 >= +1
 c6: +1 x0 +1 x13 +1 x20 +1 x21 +1 x30 +1 x32 +1 x43 +1 x47 +1 x48 +1 x58 +1 x59 +1 x66 +1 x68 +1 x79
  +1 x89 +1 x94 +1 x110 +1 x114 +1 x120 +1 x132 +1 x144 +1 x149 >= +1
 c7: +1 x3 +1 x13 +1 x18 +1 x33 +1 x34 +1 x38 +1 x39 +1 x50 +1 x52 +1 x55 +1 x73 +1 x79 +1 x81 +1 x84
  +1 x88 +1 x90 +1 x93 +1 x102 +1 x103 +1 x107 +1 x115 +1 x121 +1 x127 +1 x131 >= +1
 c8: +1 x3 +1 x23 +1 x42 +1 x44 +1 x45 +1 x84 +1 x88 +1 x90 +1 x95 +1 x101 +1 x106 +1 x107 +1 x113 +1 x117
  +1 x120 +1 x127 +1 x131 >= +1
 c9: +1 x3 +1 x8 +1 x19 +1 x23 +1 x26 +1 x35 +1 x48 +1 x57 +1 x61 +1 x64 +1 x66 +1 x70 +1 x87 +1 x96 +1 x103
  +1 x105 +1 x112 +1 x113 +1 x119 +1 x120 +1 x122 +1 x140 +1 x145 +1 x147 >= +1
 c10: +1 x5 +1 x8 +1 x13 +1 x16 +1 x19 +1 x24 +1 x29 +1 x33 +1 x36 +1 x42 +1 x49 +1 x52 +1 x53 +1 x54
  +1 x57 +1 x64 +1 x66 +1 x82 +1 x83 +1 x86 +1 x92 +1 x98 +1 x101 +1 x102 +1 x106 +1 x110 +1 x114 +1 x123
  +1 x138 +1 x141 >= +1
 c11: +1 x1 +1 x9 +1 x16 +1 x17 +1 x19 +1 x20 +1 x22 +1 x24 +1 x38 +1 x42 +1 x49 +1 x56 +1 x59 +1 x64
  +1 x68 +1 x82 +1 x92 +1 x97 +1 x104 +1 x105 +1 x113 +1 x125 +1 x138 +1 x140 +1 x141 +1 x147 >= +1
 c12: +1 x1 +1 x9 +1 x13 +1 x23 +1 x25 +1 x36 +1 x37 +1 x40 +1 x46 +1 x54 +1 x59 +1 x72 +1 x76 +1 x92
  +1 x100 +1 x101 +1 x103 +1 x108 +1 x120 +1 x122 +1 x130 +1 x131 +1 x134 +1 x145 +1 x146 +1 x147 >= +1
 c13: +1 x0 +1 x20 +1 x31 +1 x33 +1 x34 +1 x38 +1 x42 +1 x51 +1 x57 +1 x65 +1 x86 +1 x91 +1 x105 +1 x106
  +1 x115 +1 x116 +1 x117 +1 x118 +1 x119 +1 x120 +1 x121 +1 x132 +1 x134 +1 x143 >= +1
 c14: +1 x4 +1 x18 +1 x21 +1 x34 +1 x35 +1 x41 +1 x58 +1 x66 +1 x71 +1 x76 +1 x79 +1 x81 +1 x103 +1 x107
  +1 x115 +1 x129 +1 x130 >= +1
 c15: +1 x2 +1 x7 +1 x10 +1 x14 +1 x16 +1 x21 +1 x24 +1 x25 +1 x29 +1 x32 +1 x35 +1 x43 +1 x62 +1 x70
  +1 x74 +1 x88 +1 x102 +1 x103 +1 x109 +1 x135 +1 x137 +1 x140 +1 x141 +1 x145 >= +1
 c16: +1 x1 +1 x11 +1 x27 +1 x43 +1 x46 +1 x54 +1 x60 +1 x66 +1 x81 +1 x84 +1 x89 +1 x94 +1 x103 +1 x104
  +1 x110 +1 x127 +1 x142 +1 x143 +1 x147 >= +1
 c17: +1 x1 +1 x6 +1 x11 +1 x18 +1 x60 +1 x66 +1 x72 +1 x89 +1 x92 +1 x93 +1 x98 +1 x104 +1 x115 +1 x122
  +1 x133 +1 x136 +1 x139 +1 x141 +1 x145 >= +1
 c18: +1 x2 +1 x9 +1 x27 +1 x40 +1 x50 +1 x64 +1 x76 +1 x79 +1 x84 +1 x88 +1 x90 +1 x102 +1 x105 +1 x107
  +1 x108 +1 x113 +1 x117 +1 x128 +1 x129 +1 x133 +1 x138 +1 x142 >= +1
 c19: +1 x4 +1 x13 +1 x39 +1 x40 +1 x46 +1 x57 +1 x58 +1 x60 +1 x62 +1 x71 +1 x75 +1 x84 +1 x124 +1 x126
  +1 x132 +1 x137 +1 x138 +1 x146 >= +1
 c20: +1 x0 +1 x16 +1 x36 +1 x39 +1 x49 +1 x56 +1 x61 +1 x63 +1 x69 +1 x90 +1 x91 +1 x94 +1 x98 +1 x99
  +1 x106 +1 x110 +1 x113 +1 x134 +1 x145 +1 x148 >= +1
 c21: +1 x1 +1 x8 +1 x9 +1 x11 +1 x19 +1 x20 +1 x29 +1 x33 +1 x39 +1 x43 +1 x46 +1 x58 +1 x66 +1 x79 +1 x90
  +1 x96 +1 x116 +1 x119 +1 x120 +1 x125 +1 x129 +1 x142 +1 x144 +1 x146 +1 x147 +1 x149 >= +1
 c22: +1 x5 +1 x9 +1 x17 +1 x23 +1 x32 +1 x33 +1 x41 +1 x44 +1 x50 +1 x55 +1 x56 +1 x63 +1 x83 +1 x86
  +1 x104 +1 x105 +1 x106 +1 x110 +1 x117 +1 x121 +1 x122 +1 x125 +1 x126 +1 x143 +1 x144 +1 x146 >= +1
 c23: +1 x6 +1 x15 +1 x18 +1 x21 +1 x26 +1 x43 +1 x49 +1 x55 +1 x58 +1 x67 +1 x69 +1 x71 +1 x80 +1 x82
  +1 x87 +1 x90 +1 x94 +1 x97 +1 x98 +1 x103 +1 x109 +1 x111 +1 x112 +1 x124 +1 x131 +1 x134 +1 x141 +1 x143
  +1 x148 +1 x149 >= +1
 c24: +1 x1 +1 x11 +1 x14 +1 x18 +1 x21 +1 x24 +1 x28 +1 x30 +1 x38 +1 x39 +1 x41 +1 x52 +1 x58 +1 x59
  +1 x71 +1 x88 +1 x89 +1 x94 +1 x95 +1 x103 +1 x105 +1 x106 +1 x115 +1 x118 +1 x126 +1 x129 +1 x130 +1 x131
  +1 x146 >= +1
 c25: +1 x1 +1 x13 +1 x20 +1 x24 +1 x29 +1 x37 +1 x39 +1 x40 +1 x53 +1 x60 +1 x65 +1 x70 +1 x74 +1 x84
  +1 x92 +1 x96 +1 x109 +1 x136 +1 x140 >= +1
 c26: +1 x3 +1 x14 +1 x18 +1 x19 +1 x24 +1 x35 +1 x38 +1 x42 +1 x55 +1 x60 +1 x69 +1 x74 +1 x75 +1 x76
  +1 x78 +1 x86 +1 x87 +1 x88 +1 x100 +1 x105 +1 x106 +1 x128 +1 x131 +1 x132 +1 x140 +1 x149 >= +1
 c27: +1 x0 +1 x9 +1 x14 +1 x16 +1 x30 +1 x34 +1 x43 +1 x52 +1 x58 +1 x60 +1 x61 +1 x67 +1 x71 +1 x77
  +1 x96 +1 x97 +1 x103 +1 x115 +1 x129 +1 x144 +1 x147 >= +1
 c28: +1 x5 +1 x17 +1 x33 +1 x38 +1 x46 +1 x56 +1 x60 +1 x62 +1 x64 +1 x68 +1 x69 +1 x71 +1 x74 +1 x75
  +1 x77 +1 x84 +1 x85 +1 x93 +1 x100 +1 x113 +1 x118 +1 x121 +1 x122 +1 x130 +1 x131 +1 x132 +1 x143
  +1 x148 >= +1
 c29: +1 x2 +1 x12 +1 x16 +1 x27 +1 x34 +1 x36 +1 x37 +1 x46 +1 x60 +1 x83 +1 x94 +1 x97 +1 x100 +1 x102
  +1 x105 +1 x112 +1 x118 +1 x120 +1 x122 +1 x128 +1 x137 +1 x142 +1 x143 >= +1
 c30: +1 x6 +1 x8 +1 x12 +1 x14 +1 x20 +1 x24 +1 x35 +1 x42 +1 x49 +1 x52 +1 x58 +1 x60 +1 x62 +1 x71
  +1 x81 +1 x93 +1 x109 +1 x130 +1 x133 +1 x142 >= +1
 c31: +1 x4 +1 x7 +1 x10 +1 x23 +1 x26 +1 x27 +1 x35 +1 x39 +1 x45 +1 x47 +1 x48 +1 x51 +1 x58 +1 x61
  +1 x95 +1 x100 +1 x107 +1 x108 +1 x110 +1 x119 +1 x125 +1 x132 +1 x134 +1 x140 +1 x145 +1 x147 +1 x148
  >= +1
 c32: +1 x2 +1 x6 +1 x14 +1 x17 +1 x18 +1 x23 +1 x28 +1 x35 +1 x57 +1 x73 +1 x74 +1 x89 +1 x96 +1 x97
  +1 x109 +1 x120 +1 x122 +1 x125 +1 x128 +1 x134 +1 x142 +1 x143 +1 x145 >= +1
 c33: +1 x6 +1 x12 +1 x23 +1 x25 +1 x29 +1 x31 +1 x39 +1 x44 +1 x55 +1 x56 +1 x79 +1 x80 +1 x83 +1 x86
  +1 x88 +1 x92 +1 x102 +1 x105 +1 x113 +1 x115 +1 x121 +1 x123 +1 x125 +1 x128 +1 x137 +1 x141 >= +1
 c34: +1 x2 +1 x12 +1 x17 +1 x36 +1 x42 +1 x43 +1 x44 +1 x50 +1 x54 +1 x56 +1 x62 +1 x66 +1 x68 +1 x73
  +1 x83 +1 x84 +1 x100 +1 x107 +1 x114 +1 x136 +1 x144 +1 x147 >= +1
 c35: +1 x3 +1 x7 +1 x8 +1 x28 +1 x32 +1 x34 +1 x37 +1 x39 +1 x53 +1 x74 +1 x77 +1 x82 +1 x98 +1 x100
  +1 x101 +1 x102 +1 x110 +1 x143 +1 x144 >= +1
 c36: +1 x0 +1 x8 +1 x10 +1 x14 +1 x18 +1 x24 +1 x26 +1 x31 +1 x41 +1 x43 +1 x45 +1 x48 +1 x52 +1 x53
  +1 x63 +1 x69 +1 x71 +1 x73 +1 x84 +1 x87 +1 x88 +1 x90 +1 x97 +1 x103 +1 x113 +1 x126 +1 x133 +1 x138
  +1 x141 +1 x148 >= +1
 c37: +1 x5 +1 x10 +1 x25 +1 x58 +1 x69 +1 x74 +1 x76 +1 x79 +1 x81 +1 x86 +1 x93 +1 x107 +1 x108 +1 x112
  +1 x113 +1 x114 +1 x136 +1 x144 >= +1
 c38: +1 x1 +1 x8 +1 x9 +1 x14 +1 x34 +1 x41 +1 x49 +1 x52 +1 x53 +1 x66 +1 x75 +1 x79 +1 x105 +1 x107
  +1 x111 +1 x114 +1 x115 +1 x124 +1 x126 +1 x133 +1 x135 +1 x136 +1 x140 +1 x141 +1 x146 >= +1
 c39: +1 x6 +1 x9 +1 x10 +1 x18 +1 x19 +1 x43 +1 x50 +1 x51 +1 x60 +1 x63 +1 x67 +1 x72 +1 x80 +1 x89
  +1 x90 +1 x95 +1 x100 +1 x111 +1 x119 +1 x124 +1 x134 +1 x144 +1 x145 +1 x149 >= +1
 c40: +1 x5 +1 x7 +1 x19 +1 x23 +1 x24 +1 x26 +1 x34 +1 x37 +1 x41 +1 x46 +1 x58 +1 x62 +1 x66 +1 x72
  +1 x86 +1 x92 +1 x106 +1 x107 +1 x108 +1 x112 +1 x114 +1 x120 +1 x134 +1 x145 >= +1
 c41: +1 x0 +1 x24 +1 x33 +1 x41 +1 x43 +1 x45 +1 x46 +1 x48 +1 x59 +1 x69 +1 x73 +1 x83 +1 x86 +1 x87
  +1 x93 +1 x104 +1 x124 +1 x130 +1 x135 +1 x139 +1 x143 >= +1
 c42: +1 x3 +1 x15 +1 x25 +1 x28 +1 x34 +1 x56 +1 x62 +1 x64 +1 x67 +1 x81 +1 x82 +1 x87 +1 x97 +1 x100
  +1 x108 +1 x109 +1 x110 +1 x124 +1 x126 >= +1
 c43: +1 x3 +1 x22 +1 x25 +1 x28 +1 x35 +1 x46 +1 x53 +1 x54 +1 x56 +1 x60 +1 x66 +1 x67 +1 x88 +1 x96
  +1 x107 +1 x113 +1 x116 +1 x132 +1 x133 +1 x149 >= +1
 c44: +1 x6 +1 x21 +1 x23 +1 x25 +1 x26 +1 x43 +1 x46 +1 x48 +1 x55 +1 x66 +1 x71 +1 x73 +1 x82 +1 x84
  +1 x89 +1 x128 +1 x133 +1 x134 +1 x141 +1 x149 >= +1
 c45: +1 x5 +1 x19 +1 x29 +1 x36 +1 x42 +1 x50 +1 x51 +1 x67 +1 x77 +1 x81 +1 x86 +1 x92 +1 x100 +1 x104
  +1 x109 +1 x111 +1 x114 +1 x115 +1 x116 +1 x119 +1 x126 +1 x142 +1 x144 +1 x145 >= +1
 c46: +1 x5 +1 x10 +1 x11 +1 x14 +1 x22 +1 x25 +1 x31 +1 x40 +1 x43 +1 x50 +1 x55 +1 x57 +1 x61 +1 x62
  +1 x65 +1 x66 +1 x81 +1 x89 +1 x91 +1 x92 +1 x96 +1 x100 +1 x103 +1 x110 +1 x123 +1 x127 +1 x128 +1 x132
  +1 x143 >= +1
 c47: +1 x6 +1 x9 +1 x12 +1 x18 +1 x20 +1 x22 +1 x26 +1 x31 +1 x37 +1 x38 +1 x40 +1 x46 +1 x56 +1 x57
  +1 x68 +1 x73 +1 x79 +1 x83 +1 x87 +1 x89 +1 x93 +1 x94 +1 x95 +1 x106 +1 x107 +1 x116 +1 x120 +1 x122
  +1 x127 +1 x130 +1 x144 +1 x145 >= +1
 c48: +1 x2 +1 x14 +1 x17 +1 x27 +1 x31 +1 x35 +1 x49 +1 x51 +1 x54 +1 x55 +1 x60 +1 x62 +1 x108 +1 x113
  +1 x122 +1 x127 +1 x137 >= +1
 c49: +1 x1 +1 x6 +1 x8 +1 x10 +1 x16 +1 x23 +1 x24 +1 x26 +1 x39 +1 x62 +1 x64 +1 x65 +1 x72 +1 x75 +1 x79
  +1 x80 +1 x85 +1 x93 +1 x118 +1 x129 +1 x139 +1 x142 +1 x145 >= +1
 c50: +1 x6 +1 x7 +1 x14 +1 x15 +1 x32 +1 x60 +1 x71 +1 x79 +1 x80 +1 x91 +1 x96 +1 x99 +1 x101 +1 x105
  +1 x109 +1 x115 +1 x125 +1 x128 +1 x134 +1 x142 +1 x147 +1 x149 >= +1
 c51: +1 x3 +1 x16 +1 x32 +1 x33 +1 x36 +1 x45 +1 x52 +1 x54 +1 x60 +1 x67 +1 x78 +1 x82 +1 x85 +1 x88
  +1 x90 +1 x92 +1 x94 +1 x109 +1 x111 +1 x118 +1 x122 +1 x123 +1 x126 +1 x130 +1 x133 +1 x136 +1 x140
  >= +1
 c52: +1 x0 +1 x7 +1 x17 +1 x23 +1 x30 +1 x31 +1 x50 +1 x51 +1 x58 +1 x67 +1 x85 +1 x105 +1 x118 +1 x125
  +1 x126 +1 x128 +1 x130 +1 x147 >= +1
 c53: +1 x2 +1 x13 +1 x16 +1 x20 +1 x22 +1 x25 +1 x34 +1 x35 +1 x36 +1 x46 +1 x54 +1 x59 +1 x63 +1 x70
  +1 x94 +1 x106 +1 x143 >= +1
 c54: +1 x5 +1 x11 +1 x20 +1 x25 +1 x26 +1 x41 +1 x53 +1 x54 +1 x82 +1 x83 +1 x91 +1 x92 +1 x93 +1 x94
  +1 x97 +1 x100 +1 x104 +1 x106 +1 x115 +1 x116 +1 x117 +1 x121 +1 x134 +1 x137 +1 x142 >= +1
 c55: +1 x1 +1 x9 +1 x14 +1 x17 +1 x18 +1 x19 +1 x30 +1 x48 +1 x53 +1 x59 +1 x71 +1 x73 +1 x80 +1 x83
  +1 x89 +1 x95 +1 x102 +1 x103 +1 x106 +1 x111 +1 x125 +1 x128 +1 x133 +1 x139 +1 x142 >= +1
 c56: +1 x3 +1 x20 +1 x38 +1 x39 +1 x42 +1 x45 +1 x55 +1 x61 +1 x70 +1 x71 +1 x79 +1 x80 +1 x87 +1 x88
  +1 x95 +1 x97 +1 x103 +1 x111 +1 x119 +1 x120 +1 x125 +1 x131 +1 x138 +1 x140 +1 x149 >= +1
 c57: +1 x0 +1 x7 +1 x16 +1 x18 +1 x22 +1 x23 +1 x27 +1 x32 +1 x39 +1 x43 +1 x45 +1 x46 +1 x51 +1 x57
  +1 x60 +1 x64 +1 x68 +1 x74 +1 x75 +1 x77 +1 x87 +1 x91 +1 x92 +1 x93 +1 x95 +1 x103 +1 x108 +1 x109
  +1 x114 +1 x120 +1 x127 +1 x128 +1 x131 +1 x139 +1 x144 +1 x149 >= +1
 c58: +1 x5 +1 x9 +1 x10 +1 x14 +1 x16 +1 x28 +1 x38 +1 x48 +1 x58 +1 x64 +1 x68 +1 x82 +1 x84 +1 x85
  +1 x87 +1 x104 +1 x107 +1 x109 +1 x124 +1 x127 +1 x131 +1 x135 +1 x144 >= +1
 c59: +1 x1 +1 x10 +1 x11 +1 x19 +1 x20 +1 x27 +1 x33 +1 x36 +1 x64 +1 x70 +1 x86 +1 x88 +1 x99 +1 x103
  +1 x106 +1 x120 +1 x123 +1 x133 +1 x134 +1 x140 >= +1
 c60: +1 x2 +1 x15 +1 x16 +1 x36 +1 x54 +1 x62 +1 x64 +1 x79 +1 x81 +1 x86 +1 x89 +1 x91 +1 x96 +1 x97
  +1 x99 +1 x101 +1 x104 +1 x109 +1 x111 +1 x116 +1 x117 +1 x118 +1 x120 +1 x126 +1 x133 +1 x134 +1 x136
  +1 x142 >= +1
 c61: +1 x4 +1 x7 +1 x18 +1 x21 +1 x23 +1 x35 +1 x38 +1 x40 +1 x42 +1 x43 +1 x53 +1 x62 +1 x68 +1 x72
  +1 x81 +1 x84 +1 x95 +1 x97 +1 x100 +1 x104 +1 x106 +1 x112 +1 x114 +1 x116 +1 x119 +1 x120 +1 x121
  +1 x126 +1 x131 +1 x134 +1 x137 +1 x139 +1 x143 +1 x145 +1 x148 +1 x149 >= +1
 c62: +1 x3 +1 x8 +1 x22 +1 x25 +1 x28 +1 x33 +1 x40 +1 x53 +1 x62 +1 x65 +1 x70 +1 x72 +1 x77 +1 x78
  +1 x84 +1 x97 +1 x112 +1 x114 +1 x120 +1 x128 +1 x142 +1 x144 +1 x147 >= +1
 c63: +1 x5 +1 x15 +1 x27 +1 x28 +1 x29 +1 x34 +1 x37 +1 x46 +1 x48 +1 x52 +1 x53 +1 x64 +1 x90 +1 x92
  +1 x95 +1 x108 +1 x111 +1 x113 +1 x114 +1 x116 >= +1
 c64: +1 x4 +1 x8 +1 x9 +1 x18 +1 x23 +1 x24 +1 x25 +1 x28 +1 x36 +1 x44 +1 x60 +1 x66 +1 x74 +1 x95 +1 x105
  +1 x113 +1 x125 +1 x129 +1 x137 >= +1
 c65: +1 x6 +1 x21 +1 x26 +1 x28 +1 x55 +1 x56 +1 x58 +1 x59 +1 x60 +1 x65 +1 x67 +1 x71 +1 x82 +1 x92
  +1 x105 +1 x107 +1 x112 +1 x140 +1 x147 >= +1
 c66: +1 x1 +1 x7 +1 x12 +1 x13 +1 x15 +1 x23 +1 x25 +1 x26 +1 x31 +1 x32 +1 x38 +1 x48 +1 x64 +1 x67
  +1 x70 +1 x72 +1 x73 +1 x75 +1 x79 +1 x80 +1 x84 +1 x99 +1 x104 +1 x109 +1 x110 +1 x117 +1 x118 +1 x120
  +1 x136 +1 x138 +1 x146 >= +1
 c67: +1 x2 +1 x7 +1 x17 +1 x20 +1 x24 +1 x25 +1 x31 +1 x38 +1 x39 +1 x50 +1 x59 +1 x66 +1 x67 +1 x72
  +1 x74 +1 x83 +1 x84 +1 x96 +1 x115 +1 x123 +1 x126 +1 x128 >= +1
 c68: +1 x0 +1 x18 +1 x29 +1 x32 +1 x44 +1 x63 +1 x65 +1 x70 +1 x80 +1 x88 +1 x92 +1 x103 +1 x108 +1 x114
  +1 x121 +1 x128 +1 x132 +1 x136 >= +1
 c69: +1 x2 +1 x10 +1 x14 +1 x18 +1 x23 +1 x28 +1 x38 +1 x42 +1 x62 +1 x69 +1 x75 +1 x78 +1 x86 +1 x94
  +1 x105 +1 x107 +1 x126 +1 x134 +1 x137 +1 x145 >= +1
 c70: +1 x2 +1 x8 +1 x17 +1 x31 +1 x33 +1 x36 +1 x45 +1 x50 +1 x63 +1 x75 +1 x76 +1 x88 +1 x89 +1 x93
  +1 x96 +1 x97 +1 x99 +1 x112 +1 x113 +1 x119 +1 x132 +1 x136 +1 x137 +1 x138 +1 x142 +1 x146 >= +1
 c71: +1 x5 +1 x10 +1 x25 +1 x34 +1 x38 +1 x51 +1 x56 +1 x59 +1 x60 +1 x85 +1 x86 +1 x92 +1 x94 +1 x100
  +1 x108 +1 x110 +1 x114 +1 x135 +1 x139 +1 x141 +1 x144 >= +1
 c72: +1 x3 +1 x13 +1 x16 +1 x37 +1 x38 +1 x44 +1 x58 +1 x63 +1 x74 +1 x76 +1 x77 +1 x87 +1 x91 +1 x96
  +1 x98 +1 x102 +1 x110 +1 x115 +1 x124 +1 x126 +1 x127 +1 x137 >= +1
 c73: +1 x5 +1 x16 +1 x43 +1 x44 +1 x52 +1 x61 +1 x95 +1 x97 +1 x99 +1 x101 +1 x108 +1 x113 +1 x120 >= +1
 c74: +1 x4 +1 x7 +1 x14 +1 x16 +1 x20 +1 x24 +1 x30 +1 x41 +1 x50 +1 x57 +1 x61 +1 x63 +1 x64 +1 x67
  +1 x81 +1 x82 +1 x94 +1 x96 +1 x101 +1 x102 +1 x108 +1 x117 +1 x121 +1 x128 +1 x135 >= +1
 c75: +1 x6 +1 x16 +1 x24 +1 x29 +1 x35 +1 x41 +1 x44 +1 x45 +1 x51 +1 x52 +1 x56 +1 x59 +1 x62 +1 x64
  +1 x65 +1 x66 +1 x68 +1 x73 +1 x87 +1 x96 +1 x101 +1 x103 +1 x108 +1 x112 +1 x114 +1 x121 +1 x124 +1 x126
  +1 x128 +1 x146 >= +1
 c76: +1 x0 +1 x13 +1 x20 +1 x32 +1 x40 +1 x44 +1 x52 +1 x53 +1 x59 +1 x62 +1 x67 +1 x69 +1 x75 +1 x83
  +1 x84 +1 x88 +1 x124 +1 x149 >= +1
 c77: +1 x4 +1 x13 +1 x18 +1 x20 +1 x26 +1 x28 +1 x32 +1 x33 +1 x35 +1 x37 +1 x64 +1 x65 +1 x75 +1 x80
  +1 x82 +1 x87 +1 x91 +1 x96 +1 x98 +1 x106 +1 x109 +1 x113 +1 x115 +1 x122 +1 x127 +1 x134 +1 x145 +1 x149
  >= +1
 c78: +1 x3 +1 x8 +1 x14 +1 x15 +1 x30 +1 x32 +1 x36 +1 x40 +1 x44 +1 x45 +1 x46 +1 x66 +1 x68 +1 x82
  +1 x84 +1 x85 +1 x89 +1 x99 +1 x123 +1 x129 +1 x135 >= +1
 c79: +1 x3 +1 x11 +1 x17 +1 x23 +1 x29 +1 x33 +1 x42 +1 x46 +1 x62 +1 x68 +1 x72 +1 x73 +1 x78 +1 x79
  +1 x80 +1 x81 +1 x83 +1 x85 +1 x86 +1 x93 +1 x107 +1 x109 +1 x110 +1 x114 +1 x115 +1 x116 +1 x123 +1 x125
  +1 x130 +1 x136 >= +1
 c80: +1 x5 +1 x9 +1 x28 +1 x29 +1 x37 +1 x49 +1 x55 +1 x56 +1 x61 +1 x63 +1 x67 +1 x73 +1 x85 +1 x89
  +1 x95 +1 x110 +1 x111 +1 x116 +1 x119 +1 x122 +1 x123 +1 x126 +1 x142 +1 x149 >= +1
 c81: +1 x2 +1 x7 +1 x14 +1 x29 +1 x42 +1 x56 +1 x57 +1 x85 +1 x95 +1 x117 +1 x124 +1 x128 +1 x130 +1 x147
  +1 x148 >= +1
 c82: +1 x6 +1 x7 +1 x18 +1 x22 +1 x24 +1 x27 +1 x29 +1 x30 +1 x36 +1 x38 +1 x42 +1 x44 +1 x49 +1 x79
  +1 x82 +1 x86 +1 x94 +1 x96 +1 x97 +1 x99 +1 x105 +1 x114 +1 x115 +1 x121 +1 x142 >= +1
 c83: +1 x1 +1 x7 +1 x11 +1 x24 +1 x27 +1 x30 +1 x31 +1 x32 +1 x35 +1 x36 +1 x50 +1 x51 +1 x56 +1 x64
  +1 x74 +1 x90 +1 x93 +1 x110 +1 x115 +1 x117 +1 x118 +1 x122 +1 x125 +1 x128 +1 x129 +1 x130 +1 x139
  +1 x141 >= +1
 c84: +1 x5 +1 x9 +1 x11 +1 x12 +1 x17 +1 x27 +1 x48 +1 x50 +1 x55 +1 x58 +1 x88 +1 x93 +1 x95 +1 x102
  +1 x118 +1 x123 +1 x143 +1 x144 +1 x145 >= +1
 c85: +1 x3 +1 x10 +1 x15 +1 x17 +1 x22 +1 x32 +1 x34 +1 x37 +1 x57 +1 x65 +1 x68 +1 x71 +1 x78 +1 x79
  +1 x87 +1 x88 +1 x89 +1 x94 +1 x96 +1 x105 +1 x109 +1 x115 +1 x126 +1 x129 +1 x140 +1 x146 +1 x147 >= +1
 c86: +1 x2 +1 x12 +1 x13 +1 x18 +1 x28 +1 x38 +1 x39 +1 x43 +1 x60 +1 x62 +1 x74 +1 x75 +1 x88 +1 x90
  +1 x94 +1 x98 +1 x103 +1 x113 +1 x119 +1 x122 +1 x124 +1 x130 +1 x132 +1 x133 +1 x138 +1 x141 +1 x143
  +1 x146 >= +1
 c87: +1 x1 +1 x8 +1 x11 +1 x24 +1 x34 +1 x36 +1 x42 +1 x44 +1 x55 +1 x63 +1 x74 +1 x76 +1 x90 +1 x91
  +1 x100 +1 x111 +1 x115 +1 x117 +1 x126 +1 x129 +1 x131 +1 x147 >= +1
 c88: +1 x3 +1 x13 +1 x32 +1 x41 +1 x42 +1 x49 +1 x54 +1 x59 +1 x63 +1 x64 +1 x65 +1 x70 +1 x87 +1 x94
  +1 x125 +1 x140 +1 x143 >= +1
 c89: +1 x4 +1 x9 +1 x10 +1 x15 +1 x18 +1 x21 +1 x27 +1 x37 +1 x54 +1 x79 +1 x81 +1 x86 +1 x95 +1 x98
  +1 x99 +1 x103 +1 x110 +1 x117 +1 x131 +1 x140 +1 x143 >= +1
 c90: +1 x5 +1 x10 +1 x13 +1 x21 +1 x23 +1 x25 +1 x26 +1 x39 +1 x45 +1 x49 +1 x60 +1 x61 +1 x62 +1 x65
  +1 x66 +1 x68 +1 x77 +1 x104 +1 x124 +1 x129 +1 x130 +1 x145 +1 x147 >= +1
 c91: +1 x3 +1 x36 +1 x37 +1 x39 +1 x53 +1 x64 +1 x70 +1 x76 +1 x84 +1 x89 +1 x98 +1 x99 +1 x109 +1 x111
  +1 x119 +1 x134 +1 x143 +1 x148 >= +1
 c92: +1 x1 +1 x24 +1 x33 +1 x42 +1 x54 +1 x56 +1 x61 +1 x62 +1 x66 +1 x67 +1 x69 +1 x81 +1 x90 +1 x94
  +1 x96 +1 x100 +1 x101 +1 x108 +1 x123 +1 x124 +1 x128 +1 x131 +1 x135 +1 x141 +1 x144 +1 x146 +1 x148
  >= +1
 c93: +1 x0 +1 x22 +1 x24 +1 x26 +1 x27 +1 x44 +1 x45 +1 x47 +1 x56 +1 x60 +1 x68 +1 x79 +1 x88 +1 x103
  +1 x124 +1 x137 >= +1
 c94: +1 x0 +1 x8 +1 x20 +1 x22 +1 x29 +1 x48 +1 x49 +1 x58 +1 x63 +1 x71 +1 x82 +1 x83 +1 x90 +1 x96
  +1 x105 +1 x111 +1 x120 +1 x123 +1 x129 +1 x134 +1 x138 +1 x141 +1 x146 +1 x148 +1 x149 >= +1
 c95: +1 x6 +1 x13 +1 x16 +1 x18 +1 x20 +1 x26 +1 x32 +1 x33 +1 x35 +1 x46 +1 x61 +1 x62 +1 x73 +1 x77
  +1 x79 +1 x80 +1 x81 +1 x82 +1 x89 +1 x91 +1 x118 +1 x123 +1 x128 +1 x130 +1 x135 +1 x146 >= +1
 c96: +1 x4 +1 x9 +1 x17 +1 x24 +1 x35 +1 x43 +1 x54 +1 x71 +1 x75 +1 x82 +1 x87 +1 x96 +1 x97 +1 x99
  +1 x101 +1 x105 +1 x113 +1 x117 +1 x122 +1 x129 +1 x133 +1 x143 +1 x149 >= +1
 c97: +1 x4 +1 x7 +1 x9 +1 x22 +1 x43 +1 x48 +1 x49 +1 x50 +1 x51 +1 x52 +1 x57 +1 x63 +1 x73 +1 x77 +1 x81
  +1 x87 +1 x130 +1 x141 >= +1
 c98: +1 x1 +1 x7 +1 x19 +1 x20 +1 x21 +1 x26 +1 x48 +1 x52 +1 x53 +1 x63 +1 x68 +1 x95 +1 x97 +1 x110
  +1 x111 +1 x115 +1 x121 +1 x127 +1 x135 +1 x146 +1 x147 >= +1
 c99: +1 x5 +1 x9 +1 x15 +1 x21 +1 x23 +1 x32 +1 x53 +1 x59 +1 x67 +1 x74 +1 x75 +1 x78 +1 x81 +1 x82
  +1 x96 +1 x99 +1 x107 +1 x108 +1 x115 +1 x131 +1 x142 +1 x145 >= +1
 c100: +1 x3 +1 x14 +1 x27 +1 x30 +1 x39 +1 x49 +1 x52 +1 x53 +1 x66 +1 x69 +1 x74 +1 x75 +1 x78 +1 x84
  +1 x92 +1 x93 +1 x95 +1 x96 +1 x124 +1 x135 +1 x146 +1 x149 >= +1
 c101: +1 x2 +1 x7 +1 x13 +1 x14 +1 x18 +1 x19 +1 x26 +1 x31 +1 x36 +1 x68 +1 x75 +1 x83 +1 x86 +1 x87
  +1 x99 +1 x103 +1 x104 +1 x112 +1 x115 +1 x121 +1 x136 +1 x137 +1 x141 +1 x145 +1 x149 >= +1
 c102: +1 x6 +1 x7 +1 x34 +1 x43 +1 x45 +1 x55 +1 x65 +1 x70 +1 x73 +1 x80 +1 x83 +1 x102 +1 x107 +1 x118
  +1 x122 +1 x124 +1 x129 +1 x130 +1 x133 +1 x134 +1 x137 +1 x149 >= +1
 c103: +1 x5 +1 x18 +1 x21 +1 x27 +1 x37 +1 x46 +1 x47 +1 x51 +1 x61 +1 x66 +1 x75 +1 x76 +1 x83 +1 x101
  +1 x104 +1 x114 +1 x126 +1 x127 +1 x131 +1 x138 +1 x146 >= +1
 c104: +1 x4 +1 x30 +1 x33 +1 x56 +1 x68 +1 x70 +1 x75 +1 x78 +1 x86 +1 x87 +1 x88 +1 x96 +1 x101 +1 x114
  +1 x135 +1 x138 >= +1
 c105: +1 x5 +1 x16 +1 x17 +1 x19 +1 x22 +1 x25 +1 x39 +1 x48 +1 x62 +1 x63 +1 x68 +1 x76 +1 x79 +1 x89
  +1 x90 +1 x92 +1 x97 +1 x100 +1 x104 +1 x106 +1 x116 +1 x119 +1 x121 +1 x135 +1 x137 +1 x139 >= +1
 c106: +1 x5 +1 x17 +1 x21 +1 x22 +1 x27 +1 x30 +1 x33 +1 x38 +1 x48 +1 x51 +1 x53 +1 x57 +1 x66 +1 x69
  +1 x72 +1 x80 +1 x82 +1 x89 +1 x94 +1 x95 +1 x96 +1 x101 +1 x107 +1 x118 +1 x120 +1 x135 +1 x141 +1 x145
  +1 x149 >= +1
 c107: +1 x0 +1 x12 +1 x19 +1 x23 +1 x24 +1 x31 +1 x34 +1 x37 +1 x50 +1 x52 +1 x55 +1 x56 +1 x66 +1 x69
  +1 x75 +1 x78 +1 x87 +1 x92 +1 x113 +1 x116 +1 x141 +1 x143 +1 x145 +1 x148 +1 x149 >= +1
 c108: +1 x0 +1 x14 +1 x31 +1 x40 +1 x50 +1 x57 +1 x64 +1 x67 +1 x70 +1 x75 +1 x86 +1 x99 +1 x100 +1 x107
  +1 x112 +1 x114 +1 x116 +1 x117 +1 x123 +1 x138 +1 x146 >= +1
 c109: +1 x4 +1 x30 +1 x32 +1 x44 +1 x55 +1 x61 +1 x66 +1 x68 +1 x72 +1 x81 +1 x87 +1 x97 +1 x114 +1 x116
  +1 x118 +1 x121 +1 x125 +1 x126 +1 x127 +1 x141 >= +1
 c110: +1 x0 +1 x24 +1 x25 +1 x32 +1 x42 +1 x51 +1 x55 +1 x60 +1 x73 +1 x75 +1 x76 +1 x77 +1 x84 +1 x87
  +1 x101 +1 x107 +1 x127 +1 x130 +1 x134 +1 x137 +1 x140 +1 x149 >= +1
 c111: +1 x0 +1 x21 +1 x27 +1 x28 +1 x66 +1 x68 +1 x83 +1 x106 +1 x108 +1 x117 +1 x124 +1 x135 +1 x142
  +1 x145 >= +1
 c112: +1 x4 +1 x25 +1 x32 +1 x39 +1 x42 +1 x49 +1 x50 +1 x54 +1 x58 +1 x72 +1 x76 +1 x78 +1 x86 +1 x95
  +1 x97 +1 x107 +1 x109 +1 x110 +1 x121 +1 x123 +1 x129 +1 x133 >= +1
 c113: +1 x1 +1 x9 +1 x10 +1 x33 +1 x46 +1 x55 +1 x60 +1 x62 +1 x65 +1 x71 +1 x75 +1 x79 +1 x82 +1 x118
  +1 x122 +1 x128 +1 x133 +1 x146 +1 x147 +1 x148 >= +1
 c114: +1 x0 +1 x19 +1 x22 +1 x24 +1 x26 +1 x34 +1 x35 +1 x42 +1 x48 +1 x52 +1 x53 +1 x59 +1 x63 +1 x74
  +1 x80 +1 x81 +1 x84 +1 x99 +1 x105 +1 x109 +1 x112 +1 x116 +1 x126 +1 x132 +1 x140 >= +1
 c115: +1 x2 +1 x8 +1 x16 +1 x18 +1 x21 +1 x32 +1 x33 +1 x34 +1 x49 +1 x54 +1 x59 +1 x60 +1 x66 +1 x67
  +1 x89 +1 x94 +1 x101 +1 x106 +1 x118 +1 x119 +1 x120 +1 x126 +1 x128 +1 x130 +1 x136 +1 x139 >= +1
 c116: +1 x0 +1 x8 +1 x14 +1 x20 +1 x22 +1 x50 +1 x52 +1 x65 +1 x75 +1 x78 +1 x79 +1 x93 +1 x108 +1 x109
  +1 x112 +1 x119 +1 x140 +1 x142 +1 x144 +1 x148 >= +1
 c117: +1 x0 +1 x14 +1 x20 +1 x23 +1 x25 +1 x29 +1 x30 +1 x32 +1 x35 +1 x46 +1 x52 +1 x71 +1 x75 +1 x78
  +1 x86 +1 x87 +1 x107 +1 x112 +1 x114 +1 x122 +1 x123 +1 x132 +1 x149 >= +1
 c118: +1 x3 +1 x13 +1 x16 +1 x17 +1 x21 +1 x25 +1 x45 +1 x48 +1 x70 +1 x78 +1 x79 +1 x107 +1 x108 +1 x115
  +1 x131 +1 x135 >= +1
 c119: +1 x6 +1 x12 +1 x16 +1 x17 +1 x20 +1 x24 +1 x27 +1 x34 +1 x35 +1 x38 +1 x42 +1 x49 +1 x51 +1 x54
  +1 x69 +1 x73 +1 x80 +1 x82 +1 x84 +1 x87 +1 x91 +1 x93 +1 x96 +1 x97 +1 x99 +1 x106 +1 x108 +1 x109
  +1 x115 +1 x116 +1 x120 +1 x122 +1 x127 +1 x148 >= +1
 c120: +1 x2 +1 x29 +1 x46 +1 x52 +1 x55 +1 x57 +1 x81 +1 x85 +1 x92 +1 x100 +1 x104 +1 x113 +1 x115 +1 x116
  +1 x127 +1 x130 +1 x132 +1 x133 +1 x134 +1 x139 +1 x148 >= +1
 c121: +1 x6 +1 x8 +1 x11 +1 x14 +1 x32 +1 x34 +1 x39 +1 x44 +1 x45 +1 x53 +1 x61 +1 x67 +1 x69 +1 x75
  +1 x85 +1 x87 +1 x91 +1 x97 +1 x98 +1 x111 +1 x120 +1 x123 +1 x130 +1 x132 +1 x141 +1 x142 >= +1
 c122: +1 x0 +1 x7 +1 x8 +1 x20 +1 x26 +1 x28 +1 x41 +1 x50 +1 x55 +1 x60 +1 x71 +1 x73 +1 x84 +1 x87
  +1 x89 +1 x104 +1 x119 +1 x128 +1 x129 +1 x131 +1 x132 +1 x138 +1 x144 >= +1
 c123: +1 x5 +1 x11 +1 x26 +1 x29 +1 x30 +1 x37 +1 x50 +1 x66 +1 x71 +1 x74 +1 x82 +1 x89 +1 x90 +1 x97
  +1 x101 +1 x102 +1 x106 +1 x111 +1 x121 +1 x128 +1 x133 +1 x148 >= +1
 c124: +1 x2 +1 x8 +1 x17 +1 x35 +1 x62 +1 x72 +1 x77 +1 x79 +1 x80 +1 x86 +1 x93 +1 x98 +1 x103 +1 x113
  +1 x119 +1 x123 +1 x126 +1 x129 >= +1
 c125: +1 x6 +1 x11 +1 x16 +1 x17 +1 x28 +1 x29 +1 x31 +1 x44 +1 x58 +1 x62 +1 x97 +1 x106 +1 x126 +1 x127
  +1 x132 +1 x137 +1 x141 +1 x146 >= +1
 c126: +1 x6 +1 x12 +1 x25 +1 x41 +1 x44 +1 x45 +1 x46 +1 x51 +1 x56 +1 x65 +1 x91 +1 x103 +1 x107 +1 x109
  +1 x113 +1 x117 +1 x125 +1 x131 +1 x133 +1 x136 +1 x137 >= +1
 c127: +1 x3 +1 x9 +1 x17 +1 x21 +1 x22 +1 x28 +1 x39 +1 x46 +1 x52 +1 x74 +1 x83 +1 x85 +1 x92 +1 x100
  +1 x108 +1 x114 +1 x116 +1 x117 +1 x122 +1 x126 +1 x128 +1 x129 +1 x133 +1 x134 +1 x139 +1 x144 >= +1
 c128: +1 x6 +1 x7 +1 x20 +1 x21 +1 x41 +1 x50 +1 x58 +1 x73 +1 x81 +1 x89 +1 x98 +1 x113 +1 x114 +1 x124
  +1 x131 +1 x134 +1 x135 >= +1
 c129: +1 x3 +1 x10 +1 x17 +1 x46 +1 x54 +1 x68 +1 x76 +1 x88 +1 x92 +1 x97 +1 x111 +1 x113 +1 x123 +1 x127
  +1 x136 +1 x142 >= +1
 c130: +1 x0 +1 x12 +1 x13 +1 x14 +1 x31 +1 x36 +1 x47 +1 x55 +1 x64 +1 x76 +1 x86 +1 x87 +1 x88 +1 x91
  +1 x99 +1 x101 +1 x128 +1 x131 +1 x132 +1 x143 +1 x146 +1 x148 >= +1
 c131: +1 x6 +1 x7 +1 x11 +1 x22 +1 x32 +1 x34 +1 x58 +1 x59 +1 x61 +1 x63 +1 x70 +1 x83 +1 x92 +1 x105
  +1 x112 +1 x125 +1 x138 +1 x139 +1 x146 +1 x149 >= +1
 c132: +1 x2 +1 x18 +1 x19 +1 x23 +1 x29 +1 x54 +1 x56 +1 x62 +1 x68 +1 x71 +1 x90 +1 x91 +1 x102 +1 x120
  +1 x131 +1 x135 +1 x147 >= +1
 c133: +1 x1 +1 x18 +1 x22 +1 x24 +1 x25 +1 x34 +1 x38 +1 x41 +1 x49 +1 x50 +1 x55 +1 x69 +1 x73 +1 x88
  +1 x106 +1 x108 +1 x121 +1 x127 +1 x128 +1 x130 +1 x133 +1 x138 >= +1
 c134: +1 x4 +1 x9 +1 x26 +1 x36 +1 x38 +1 x60 +1 x62 +1 x63 +1 x72 +1 x76 +1 x77 +1 x78 +1 x81 +1 x83
  +1 x87 +1 x90 +1 x96 +1 x101 +1 x110 +1 x116 +1 x121 +1 x123 +1 x142 +1 x146 >= +1
 c135: +1 x6 +1 x9 +1 x18 +1 x26 +1 x28 +1 x37 +1 x51 +1 x54 +1 x59 +1 x63 +1 x64 +1 x66 +1 x82 +1 x93
  +1 x94 +1 x106 +1 x107 +1 x115 +1 x117 +1 x132 +1 x141 +1 x142 +1 x148 >= +1
 c136: +1 x5 +1 x23 +1 x24 +1 x27 +1 x34 +1 x45 +1 x53 +1 x58 +1 x87 +1 x88 +1 x90 +1 x95 +1 x99 +1 x100
  +1 x102 +1 x107 +1 x111 +1 x128 +1 x136 +1 x137 +1 x141 +1 x147 >= +1
 c137: +1 x0 +1 x10 +1 x12 +1 x13 +1 x18 +1 x21 +1 x27 +1 x28 +1 x31 +1 x33 +1 x34 +1 x35 +1 x51 +1 x62
  +1 x67 +1 x84 +1 x87 +1 x95 +1 x103 +1 x112 +1 x119 +1 x130 +1 x141 +1 x144 +1 x145 +1 x148 >= +1
 c138: +1 x4 +1 x18 +1 x33 +1 x34 +1 x36 +1 x50 +1 x67 +1 x70 +1 x74 +1 x80 +1 x84 +1 x90 +1 x104 +1 x109
  +1 x121 +1 x123 +1 x133 +1 x142 +1 x146 >= +1
 c139: +1 x4 +1 x20 +1 x21 +1 x26 +1 x32 +1 x36 +1 x41 +1 x45 +1 x57 +1 x59 +1 x62 +1 x69 +1 x70 +1 x75
  +1 x76 +1 x79 +1 x84 +1 x86 +1 x87 +1 x99 +1 x109 +1 x117 +1 x127 +1 x149 >= +1
 c140: +1 x2 +1 x15 +1 x27 +1 x36 +1 x39 +1 x42 +1 x50 +1 x59 +1 x73 +1 x75 +1 x77 +1 x81 +1 x85 +1 x93
  +1 x94 +1 x96 +1 x102 +1 x111 +1 x116 +1 x122 +1 x126 +1 x131 +1 x136 +1 x142 +1 x148 >= +1
 c141: +1 x2 +1 x11 +1 x14 +1 x28 +1 x35 +1 x46 +1 x51 +1 x52 +1 x58 +1 x65 +1 x72 +1 x75 +1 x79 +1 x85
  +1 x90 +1 x92 +1 x101 +1 x106 +1 x121 +1 x141 +1 x148 >= +1
 c142: +1 x5 +1 x12 +1 x39 +1 x55 +1 x56 +1 x58 +1 x68 +1 x69 +1 x77 +1 x79 +1 x82 +1 x92 +1 x95 +1 x97
  +1 x103 +1 x108 +1 x123 +1 x141 >= +1
 c143: +1 x6 +1 x15 +1 x16 +1 x32 +1 x35 +1 x47 +1 x49 +1 x54 +1 x65 +1 x82 +1 x83 +1 x92 +1 x93 +1 x94
  +1 x105 +1 x121 >= +1
 c144: +1 x4 +1 x29 +1 x31 +1 x43 +1 x47 +1 x52 +1 x58 +1 x70 +1 x81 +1 x84 +1 x87 +1 x99 +1 x117 +1 x133
  +1 x144 >= +1
 c145: +1 x4 +1 x18 +1 x25 +1 x32 +1 x41 +1 x49 +1 x50 +1 x91 +1 x114 +1 x122 +1 x128 +1 x139 +1 x142
  +1 x143 >= +1
 c146: +1 x2 +1 x16 +1 x19 +1 x28 +1 x29 +1 x30 +1 x34 +1 x45 +1 x46 +1 x55 +1 x67 +1 x70 +1 x75 +1 x79
  +1 x94 +1 x96 +1 x97 +1 x100 +1 x103 +1 x106 +1 x110 +1 x118 +1 x134 +1 x147 >= +1
 c147: +1 x0 +1 x7 +1 x20 +1 x21 +1 x58 +1 x60 +1 x64 +1 x69 +1 x76 +1 x95 +1 x101 +1 x104 +1 x105 +1 x106
  +1 x113 +1 x115 +1 x117 +1 x128 +1 x130 +1 x132 >= +1
 c148: +1 x0 +1 x10 +1 x19 +1 x39 +1 x44 +1 x49 +1 x61 +1 x76 +1 x79 +1 x88 +1 x106 +1 x129 +1 x130 +1 x134
  +1 x136 +1 x139 +1 x145 +1 x147 +1 x149 >= +1
 c149: +1 x5 +1 x19 +1 x20 +1 x25 +1 x46 +1 x54 +1 x86 +1 x87 +1 x92 +1 x93 +1 x110 +1 x111 +1 x113 +1 x116
  +1 x123 +1 x138 +1 x141 >= +1
Bounds
 0 <= x0 <= 1
 0 <= x1 <= 1
 0 <= x2 <= 1
 0 <= x3 <= 1
 0 <= x4 <= 1
 0 <= x5 <= 1
 0 <= x6 <= 1
 0 <= x7 <= 1
 0 <= x8 <= 1
 0 <= x9 <= 1
 0 <= x10 <= 1
 0 <= x11 <= 1
 0 <= x12 <= 1
 0 <= x13 <= 1
 0 <= x14 <= 1
 0 <= x15 <= 1
 0 <= x16 <= 1
 0 <= x17 <= 1
 0 <= x18 <= 1
 0 <= x19 <= 1
 0 <= x20 <= 1
 0 <= x21 <= 1
 0 <= x22 <= 1
 0 <= x23 <= 1
 0 <= x24 <= 1
 0 <= x25 <= 1
 0 <= x26 <= 1
 0 <= x27 <= 1
 0 <= x28 <= 1
 0 <= x29 <= 1
 0 <= x30 <= 1
 0 <= x31 <= 1
 0 <= x32 <= 1
 0 <= x33 <= 1
 0 <= x34 <= 1
 0 <= x35 <= 1
 0 <= x36 <= 1
 0 <= x37 <= 1
 0 <= x38 <= 1
 0 <= x39 <= 1
 0 <= x40 <= 1
 0 <= x41 <= 1
 0 <= x42 <= 1
 0 <= x43 <= 1
 0 <= x44 <= 1
 0 <= x45 <= 1
 0 <= x46 <= 1
 0 <= x47 <= 1
 0 <= x48 <= 1
 0 <= x49 <= 1
 0 <= x50 <= 1
 0 <= x51 <= 1
 0 <= x52 <= 1
 0 <= x53 <= 1
 0 <= x54 <= 1
 0 <= x55 <= 1
 0 <= x56 <= 1
 0 <= x57 <= 1
 0 <= x58 <= 1
 0 <= x59 <= 1
 0 <= x60 <= 1
 0 <= x61 <= 1
 0 <= x62 <= 1
 0 <= x63 <= 1
 0 <= x64 <= 1
 0 <= x65 <= 1
 0 <= x66 <= 1
 0 <= x67 <= 1
 0 <= x68 <= 1
 0 <= x69 <= 1
 0 <= x70 <= 1
 0 <= x71 <= 1
 0 <= x72 <= 1
 0 <= x73 <= 1
 0 <= x74 <= 1
 0 <= x75 <= 1
 0 <= x76 <= 1
 0 <= x77 <= 1
 0 <= x78 <= 1
 0 <= x79 <= 1
 0 <= x80 <= 1
 0 <= x81 <= 1
 0 <= x82 <= 1
 0 <= x83 <= 1
 0 <= x84 <= 1
 0 <= x85 <= 1
 0 <= x86 <= 1
 0 <= x87 <= 1
 0 <= x88 <= 1
 0 <= x89 <= 1
 0 <= x90 <= 1
 0 <= x91 <= 1
 0 <= x92 <= 1
 0 <= x93 <= 1
 0 <= x94 <= 1
 0 <= x95 <= 1
 0 <= x96 <= 1
 0 <= x97 <= 1
 0 <= x98 <= 1
 0 <= x99 <= 1
 0 <= x100 <= 1
 0 <= x101 <= 1
 0 <= x102 <= 1
 0 <= x103 <= 1
 0 <= x104 <= 1
 0 <= x105 <= 1
 0 <= x106 <= 1
 0 <= x107 <= 1
 0 <= x108 <= 1
 0 <= x109 <= 1
 0 <= x110 <= 1
 0 <= x111 <= 1
 0 <= x112 <= 1
 0 <= x113 <= 1
 0 <= x114 <= 1
 0 <= x115 <= 1
 0 <= x116 <= 1
 0 <= x117 <= 1
 0 <= x118 <= 1
 0 <= x119 <= 1
 0 <= x120 <= 1
 0 <= x121 <= 1
 0 <= x122 <= 1
 0 <= x123 <= 1
 0 <= x124 <= 1
 0 <= x125 <= 1
 0 <= x126 <= 1
 0 <= x127 <= 1
 0 <= x128 <= 1
 0 <= x129 <= 1
 0 <= x130 <= 1
 0 <= x131 <= 1
 0 <= x132 <= 1
 0 <= x133 <= 1
 0 <= x134 <= 1
 0 <= x135 <= 1
 0 <= x136 <= 1
 0 <= x137 <= 1
 0 <= x138 <= 1
 0 <= x139 <= 1
 0 <= x140 <= 1
 0 <= x141 <= 1
 0 <= x142 <= 1
 0 <= x143 <= 1
 0 <= x144 <= 1
 0 <= x145 <= 1
 0 <= x146 <= 1
 0 <= x147 <= 1
 0 <= x148 <= 1
 0 <= x149 <= 1
Binaries
 x0 x1 x2 x3 x4 x5 x6 x7 x8 x9 x10 x11 x12 x13 x14 x15 x16 x17 x18 x19 x20 x21 x22 x23 x24 x25 x26 x27
 x28 x29 x30 x31 x32 x33 x34 x35 x36 x37 x38 x39 x40 x41 x42 x43 x44 x45 x46 x47 x48 x49 x50 x51 x52 x53
 x54 x55 x56 x57 x58 x59 x60 x61 x62 x63 x64 x65 x66 x67 x68 x69 x70 x71 x72 x73 x74 x75 x76 x77 x78 x79
 x80 x81 x82 x83 x84 x85 x86 x87 x88 x89 x90 x91 x92 x93 x94 x95 x96 x97 x98 x99 x100 x101 x102 x103 x104
 x105 x106 x107 x108 x109 x110 x111 x112 x113 x114 x115 x116 x117 x118 x119 x120 x121 x122 x123 x124 x125
 x126 x127 x128 x129 x130 x131 x132 x133 x134 x135 x136 x137 x138 x139 x140 x141 x142 x143 x144 x145 x146
 x147 x148 x149
End
